============================[ Problem Statistics ]=============================|                                                                             ||  Number of variables:          4242                                         ||  Number of clauses:           10429                                         ||  Parse time:                   0.80 s                                       ||                                                                             |============================[ Search Statistics ]==============================| Conflicts |          ORIGINAL         |          LEARNT          | Progress ||           |    Vars  Clauses Literals |    Limit  Clauses Lit/Cl |          |===============================================================================|       100 |    1591     6634  1302095 |     2432      100     53 | 62.501 % ||       250 |    1591     6634  1302095 |     2675      250     75 | 62.495 % |===============================================================================restarts              : 4conflicts             : 439            (362 /sec)decisions             : 798            (0.00 % random) (658 /sec)propagations          : 13722          (11312 /sec)conflict literals     : 37042          (94.48 % deleted)CPU time              : 1.213 sSATISFIABLE